NAME : Bre-6
TYPE : CVRP
DIMENSION : 101
EDGE_WEIGHT_TYPE : EUC_2D 
CAPACITY : 200
NODE_COORD_SECTION
1 50 102
2 8 29
3 22 29
4 36 29
5 50 29
6 64 29
7 78 29
8 92 29
9 8 36
10 22 36
11 36 36
12 50 36
13 64 36
14 78 36
15 92 36
16 8 43
17 22 43
18 36 43
19 50 43
20 64 43
21 78 43
22 92 43
23 8 50
24 22 50
25 36 50
26 54 50
27 64 50
28 78 50
29 92 50
30 8 57
31 22 57
32 36 57
33 50 57
34 64 57
35 78 57
36 92 57
37 8 64
38 22 64
39 36 64
40 50 64
41 64 64
42 78 64
43 92 64
44 8 71
45 22 71
46 36 71
47 50 71
48 64 71
49 78 71
50 92 71
51 46 50
52 19 25
53 22 25
54 25 25
55 28 25
56 72 25
57 75 25
58 78 25
59 81 25
60 29 32
61 32 32
62 35 32
63 65 32
64 68 32
65 71 32
66 36 38
67 40 38
68 60 38
69 64 38
70 44 44
71 56 44
72 40 54
73 60 54
74 28 56
75 50 56
76 72 56
77 16 58
78 84 58
79 28 60
80 72 60
81 2 61
82 16 61
83 84 61
84 98 61
85 48 62
86 52 62
87 2 64
88 98 64
89 16 65
90 84 65
91 2 68
92 47 68
93 50 68
94 53 68
95 98 68
96 2 71
97 98 71
98 45 75
99 48 75
100 52 75
101 55 75
DEMAND_SECTION
1 0
2 10
3 10
4 10
5 10
6 10
7 10
8 10
9 10
10 10
11 10
12 10
13 10
14 10
15 10
16 10
17 10
18 10
19 10
20 10
21 10
22 10
23 10
24 10
25 10
26 10
27 10
28 10
29 10
30 10
31 10
32 10
33 10
34 10
35 10
36 10
37 10
38 10
39 10
40 10
41 10
42 10
43 10
44 10
45 10
46 10
47 10
48 10
49 10
50 10
51 10
52 10
53 10
54 10
55 10
56 10
57 10
58 10
59 10
60 10
61 10
62 10
63 10
64 10
65 10
66 10
67 10
68 10
69 10
70 10
71 10
72 10
73 10
74 10
75 10
76 10
77 10
78 10
79 10
80 10
81 10
82 10
83 10
84 10
85 10
86 10
87 10
88 10
89 10
90 10
91 10
92 10
93 10
94 10
95 10
96 10
97 10
98 10
99 10
100 10
101 10
DEPOT_SECTION
1 
-1
EOF
